(set-option :print-success false)
(set-logic QF_UF)
(declare-sort x53 0)
(declare-sort x25 0)
(declare-fun x101 () x25)
(declare-fun x67 () x25)
(declare-fun x45 (x25 x25) x25)
(declare-fun x47 () x25)
(declare-fun x52 () x25)
(declare-fun x84 () x25)
(declare-fun x46 (x25 x25) x25)
(assert (and (not (= x84 x47)) (and (not (= x84 x52)) (and (not (= x47 x52)) (and (and (not (= x47 x67)) (and (not (= x52 x67)) (and (not (= x101 x84)) (and (and (not (= x52 x101)) (not (= x101 x67))) (not (= x47 x101)))))) (not (= x67 x84)))))))
(assert (let ((x117 (x45 x52 x67)) (x108 (x45 x47 x52)) (x40 (x45 x67 x52)) (x123 (x45 x47 x67)) (x69 (x45 x47 x84)) (x71 (x45 x101 x84)) (x82 (x45 x67 x84)) (x1 (x45 x52 x52)) (x119 (x45 x84 x101)) (x74 (x45 x52 x101)) (x63 (x45 x101 x47)) (x72 (x45 x52 x47)) (x148 (x45 x47 x47)) (x122 (x45 x84 x67)) (x130 (x45 x47 x101)) (x59 (x45 x84 x47)) (x81 (x45 x52 x84)) (x98 (x45 x101 x101)) (x11 (x45 x67 x101)) (x60 (x45 x67 x47)) (x2 (x45 x84 x52)) (x61 (x45 x101 x52)) (x17 (x45 x67 x67)) (x4 (x45 x101 x67)) (x149 (x45 x84 x84))) (and (and (and (and (and (and (and (and (or (or (or (= x98 x52) (or (= x98 x67) (= x98 x101))) (= x47 x98)) (= x98 x84)) (or (= x4 x84) (or (= x47 x4) (or (= x4 x52) (or (= x4 x101) (= x67 x4)))))) (or (or (or (= x61 x52) (or (= x61 x67) (= x101 x61))) (= x47 x61)) (= x84 x61))) (or (or (or (= x52 x63) (or (= x63 x101) (= x63 x67))) (= x63 x47)) (= x63 x84))) (or (= x71 x84) (or (or (= x52 x71) (or (= x67 x71) (= x101 x71))) (= x71 x47)))) (and (or (= x82 x84) (or (= x47 x82) (or (or (= x82 x67) (= x82 x101)) (= x52 x82)))) (and (and (or (or (= x47 x40) (or (= x52 x40) (or (= x40 x67) (= x101 x40)))) (= x84 x40)) (and (or (= x84 x17) (or (= x47 x17) (or (= x52 x17) (or (= x17 x101) (= x17 x67))))) (or (= x11 x84) (or (= x11 x47) (or (= x11 x52) (or (= x11 x101) (= x67 x11))))))) (or (or (= x47 x60) (or (= x52 x60) (or (= x67 x60) (= x101 x60)))) (= x60 x84))))) (and (or (or (or (= x52 x81) (or (= x101 x81) (= x81 x67))) (= x81 x47)) (= x84 x81)) (and (or (= x72 x84) (or (= x47 x72) (or (= x72 x52) (or (= x67 x72) (= x101 x72))))) (and (or (or (= x47 x1) (or (or (= x1 x67) (= x101 x1)) (= x1 x52))) (= x1 x84)) (and (or (or (or (or (= x117 x67) (= x117 x101)) (= x52 x117)) (= x117 x47)) (= x84 x117)) (or (= x84 x74) (or (or (= x74 x52) (or (= x67 x74) (= x74 x101))) (= x47 x74)))))))) (and (and (and (and (or (or (= x47 x123) (or (= x52 x123) (or (= x123 x101) (= x67 x123)))) (= x123 x84)) (or (or (= x47 x130) (or (= x130 x52) (or (= x130 x101) (= x130 x67)))) (= x84 x130))) (or (= x108 x84) (or (= x108 x47) (or (or (= x108 x67) (= x101 x108)) (= x52 x108))))) (or (= x148 x84) (or (or (or (= x148 x67) (= x148 x101)) (= x52 x148)) (= x148 x47)))) (or (= x69 x84) (or (or (= x52 x69) (or (= x69 x101) (= x67 x69))) (= x47 x69))))) (and (and (and (or (or (or (= x52 x2) (or (= x67 x2) (= x101 x2))) (= x47 x2)) (= x84 x2)) (and (or (or (= x47 x119) (or (= x119 x52) (or (= x119 x101) (= x119 x67)))) (= x84 x119)) (or (or (= x47 x122) (or (or (= x122 x101) (= x67 x122)) (= x52 x122))) (= x84 x122)))) (or (= x59 x84) (or (= x47 x59) (or (= x59 x52) (or (= x67 x59) (= x101 x59)))))) (or (= x149 x84) (or (or (or (= x67 x149) (= x149 x101)) (= x149 x52)) (= x47 x149)))))))
(assert (let ((x130 (not (= x47 (x45 x47 x47)))) (x60 (not (= (x45 x52 x52) x52))) (x1 (x45 x67 x47)) (x98 (not (= x101 (x45 x101 x101)))) (x122 (x45 x52 x84)) (x108 (x45 x101 x84)) (x69 (x45 x67 x84)) (x63 (not (= (x45 x67 x67) x67))) (x11 (x45 x101 x52)) (x148 (x45 x84 x67)) (x71 (x45 x52 x101)) (x72 (x45 x47 x52)) (x59 (x45 x47 x84)) (x2 (x45 x84 x47)) (x17 (x45 x52 x67)) (x4 (x45 x67 x101)) (x74 (x45 x101 x47)) (x149 (not (= (x45 x84 x84) x84))) (x81 (x45 x52 x47)) (x61 (x45 x101 x67)) (x123 (x45 x84 x101)) (x82 (x45 x47 x101)) (x119 (x45 x84 x52)) (x40 (x45 x67 x52)) (x117 (x45 x47 x67))) (and (and (and (and (or (not (= x84 x122)) (not (= x84 x119))) (and (or (not (= x84 x108)) (not (= x123 x84))) (or (not (= x69 x84)) (not (= x84 x148))))) (or (not (= x84 x2)) (not (= x84 x59)))) (or x149 x149)) (and (and (and (and (and (or x60 x60) (and (or (not (= x11 x52)) (not (= x71 x52))) (or (not (= x17 x52)) (not (= x40 x52))))) (or (not (= x52 x81)) (not (= x52 x72)))) (or (not (= x52 x122)) (not (= x119 x52)))) (and (and (or (not (= x67 x148)) (not (= x67 x69))) (and (and (and (or x63 x63) (or (not (= x67 x4)) (not (= x67 x61)))) (or (not (= x40 x67)) (not (= x67 x17)))) (or (not (= x1 x67)) (not (= x67 x117))))) (and (or (not (= x101 x123)) (not (= x101 x108))) (and (or (not (= x101 x82)) (not (= x101 x74))) (and (or (not (= x11 x101)) (not (= x101 x71))) (and (or (not (= x61 x101)) (not (= x4 x101))) (or x98 x98))))))) (and (and (or x130 x130) (and (or (not (= x72 x47)) (not (= x47 x81))) (and (or (not (= x47 x82)) (not (= x47 x74))) (or (not (= x117 x47)) (not (= x1 x47)))))) (or (not (= x47 x2)) (not (= x59 x47))))))))
(assert (let ((x63 (x45 x47 x47)) (x71 (x45 x84 x84)) (x61 (x45 x52 x52)) (x4 (x45 x67 x67)) (x98 (x45 x101 x101))) (or (and (not (= x84 x71)) (and (not (= x63 x84)) (and (and (not (= x98 x84)) (not (= x84 x4))) (not (= x84 x61))))) (or (or (and (not (= x52 x71)) (and (and (and (not (= x52 x98)) (not (= x4 x52))) (not (= x52 x61))) (not (= x52 x63)))) (or (and (not (= x71 x67)) (and (and (not (= x61 x67)) (and (not (= x4 x67)) (not (= x67 x98)))) (not (= x63 x67)))) (and (and (and (not (= x101 x61)) (and (not (= x101 x98)) (not (= x4 x101)))) (not (= x63 x101))) (not (= x101 x71))))) (and (not (= x47 x71)) (and (not (= x63 x47)) (and (not (= x47 x61)) (and (not (= x98 x47)) (not (= x47 x4))))))))))
(assert (let ((x122 (x45 x67 x84)) (x157 (x45 x84 x67)) (x128 (x45 x84 x47)) (x77 (x45 x84 x84)) (x71 (x45 x101 x47)) (x11 (x45 x101 x84)) (x100 (x45 x52 x52)) (x60 (x45 x52 x101)) (x61 (x45 x101 x67)) (x69 (x45 x67 x52)) (x4 (x45 x101 x101)) (x119 (x45 x67 x47)) (x63 (x45 x101 x52)) (x82 (x45 x47 x101)) (x155 (x45 x47 x47)) (x136 (x45 x47 x84)) (x151 (x45 x47 x52)) (x14 (x45 x84 x52)) (x134 (x45 x52 x84)) (x40 (x45 x67 x101)) (x74 (x45 x84 x101)) (x36 (x45 x47 x67)) (x148 (x45 x67 x67)) (x102 (x45 x52 x47)) (x149 (x45 x52 x67))) (let ((x31 (= x47 x148)) (x133 (= x84 x102)) (x21 (= x47 x100)) (x7 (= x84 x61)) (x130 (= x61 x101)) (x6 (= x74 x84)) (x93 (= x122 x52)) (x42 (= x101 x69)) (x109 (= x60 x52)) (x126 (= x36 x101)) (x156 (= x122 x47)) (x68 (= x67 x77)) (x137 (= x101 x136)) (x79 (= x134 x52)) (x30 (= x82 x67)) (x152 (= x47 x69)) (x49 (= x47 x102)) (x138 (= x47 x14)) (x38 (= x84 x155)) (x54 (= x52 x136)) (x107 (= x67 x155)) (x132 (= x67 x100)) (x106 (= x84 x119)) (x66 (= x47 x134)) (x44 (= x69 x67)) (x15 (= x102 x67)) (x147 (= x67 x128)) (x94 (= x67 x122)) (x144 (= x119 x52)) (x59 (= x148 x67)) (x87 (= x71 x101)) (x86 (= x134 x101)) (x43 (= x52 x148)) (x89 (= x119 x47)) (x23 (= x36 x47)) (x139 (= x11 x47)) (x24 (= x149 x84)) (x99 (= x101 x151)) (x65 (= x63 x101)) (x114 (= x67 x14)) (x103 (= x102 x101)) (x34 (= x136 x67)) (x98 (= x101 x4)) (x39 (= x157 x67)) (x9 (= x136 x84)) (x80 (= x11 x67)) (x105 (= x101 x77)) (x32 (= x101 x60)) (x33 (= x47 x149)) (x112 (= x157 x84)) (x153 (= x69 x84)) (x12 (= x67 x134)) (x92 (= x52 x63)) (x145 (= x100 x84)) (x95 (= x52 x151)) (x143 (= x155 x52)) (x88 (= x47 x155)) (x81 (= x40 x101)) (x27 (= x47 x71)) (x118 (= x102 x52)) (x123 (= x148 x101)) (x37 (= x14 x101)) (x127 (= x69 x52)) (x19 (= x74 x67)) (x35 (= x149 x101)) (x75 (= x61 x52)) (x70 (= x101 x155)) (x97 (= x36 x52)) (x117 (= x4 x52)) (x135 (= x122 x84)) (x113 (= x63 x84)) (x140 (= x47 x77)) (x1 (= x47 x4)) (x58 (= x71 x52)) (x78 (= x101 x74)) (x83 (= x82 x47)) (x76 (= x52 x157)) (x125 (= x128 x101)) (x2 (= x67 x61)) (x50 (= x101 x119)) (x124 (= x36 x67)) (x111 (= x47 x151)) (x13 (= x52 x40)) (x48 (= x52 x82)) (x51 (= x157 x47)) (x10 (= x151 x84)) (x72 (= x84 x4)) (x120 (= x101 x157)) (x3 (= x84 x82)) (x116 (= x128 x52)) (x150 (= x84 x134)) (x41 (= x47 x74)) (x8 (= x67 x149)) (x131 (= x52 x11)) (x22 (= x60 x67)) (x16 (= x100 x101)) (x158 (= x11 x84)) (x121 (= x63 x67)) (x154 (= x60 x47)) (x17 (= x67 x4)) (x55 (= x122 x101)) (x91 (= x63 x47)) (x142 (= x84 x40)) (x159 (= x101 x11)) (x28 (= x100 x52)) (x20 (= x84 x36)) (x90 (= x67 x151)) (x26 (= x71 x67)) (x57 (= x128 x47)) (x141 (= x84 x77)) (x110 (= x84 x128)) (x64 (= x77 x52)) (x5 (= x47 x40)) (x85 (= x52 x74)) (x62 (= x52 x14)) (x18 (= x47 x136)) (x108 (= x67 x40)) (x104 (= x149 x52)) (x129 (= x148 x84)) (x29 (= x84 x14)) (x56 (= x60 x84)) (x96 (= x101 x82)) (x73 (= x71 x84)) (x115 (= x119 x67)) (x146 (= x61 x47))) (and (and (and (and (and (and (and (or (or (or x154 (or x5 x1)) x83) x41) (or (or (or x91 (or x146 x1)) x27) x139)) (and (and (or (or x58 (or (or x75 x117) x92)) x131) (or (or x48 (or (or x117 x13) x109)) x85)) (and (and (or x80 (or x26 (or (or x17 x2) x121))) (or (or (or (or x17 x108) x22) x30) x19)) (and (or (or x96 (or x32 (or x81 x98))) x78) (or (or x87 (or (or x130 x98) x65)) x159))))) (and (or (or (or x113 (or x72 x7)) x73) x158) (or (or x3 (or (or x142 x72) x56)) x6))) (and (and (or (or x106 (or x153 (or x129 x142))) x135) (or (or (or (or x7 x129) x24) x20) x112)) (and (and (and (or (or x97 (or (or x43 x75) x104)) x76) (or (or (or (or x43 x13) x127) x144) x93)) (and (and (or (or (or x35 (or x130 x123)) x126) x120) (or (or (or x42 (or x81 x123)) x50) x55)) (and (or x94 (or x115 (or x44 (or x59 x108)))) (or x39 (or (or x8 (or x59 x2)) x124))))) (and (or x156 (or x89 (or (or x5 x31) x152))) (or x51 (or (or (or x31 x146) x33) x23)))))) (and (and (or (or (or x145 (or x153 x113)) x10) x29) (or (or x133 (or (or x24 x56) x145)) x150)) (and (and (and (and (or (or x90 (or (or x121 x44) x132)) x114) (or (or (or x132 (or x22 x8)) x15) x12)) (and (or x37 (or (or (or x65 x42) x16) x99)) (or (or (or (or x35 x32) x16) x103) x86))) (and (or x79 (or (or (or x104 x109) x28) x118)) (or (or x95 (or (or x92 x127) x28)) x62))) (and (or (or (or (or x91 x152) x21) x111) x138) (or (or (or x21 (or x154 x33)) x49) x66))))) (and (and (or (or (or x10 (or x20 x3)) x38) x9) (or x110 (or x38 (or (or x73 x106) x133)))) (and (and (and (or x54 (or x143 (or x95 (or x97 x48)))) (or (or (or x118 (or x58 x144)) x143) x116)) (and (and (or x34 (or x107 (or (or x30 x124) x90))) (or (or x107 (or x15 (or x115 x26))) x147)) (and (or x137 (or x70 (or x99 (or x96 x126)))) (or x125 (or (or x103 (or x87 x50)) x70))))) (and (or (or (or x111 (or x23 x83)) x88) x18) (or x57 (or x88 (or x49 (or x27 x89)))))))) (and (and (or x141 (or (or (or x135 x158) x150) x9)) (or x141 (or x110 (or (or x6 x112) x29)))) (and (and (or (or (or (or x41 x51) x138) x57) x140) (or x140 (or x18 (or (or x139 x156) x66)))) (and (and (or x64 (or (or (or x93 x131) x79) x54)) (or (or (or (or x76 x85) x62) x116) x64)) (and (and (or x105 (or (or (or x159 x55) x86) x137)) (or x105 (or (or x37 (or x120 x78)) x125))) (and (or (or (or (or x94 x80) x12) x34) x68) (or (or x147 (or x114 (or x19 x39))) x68))))))))))
(assert (and (and (and (not (= x52 (x45 x52 x52))) (and (not (= (x45 x101 x101) x101)) (not (= x67 (x45 x67 x67))))) (not (= (x45 x47 x47) x47))) (not (= x84 (x45 x84 x84)))))
(assert (let ((x74 (x45 x101 x52)) (x61 (x45 x52 x101)) (x108 (x45 x52 x47)) (x40 (x45 x52 x67)) (x130 (x45 x101 x47)) (x81 (x45 x84 x52)) (x11 (x45 x101 x67)) (x98 (x45 x101 x101)) (x82 (x45 x84 x67)) (x4 (x45 x67 x101)) (x1 (x45 x52 x52)) (x123 (x45 x67 x47)) (x122 (x45 x67 x84)) (x71 (x45 x84 x101)) (x17 (x45 x67 x67)) (x69 (x45 x84 x47)) (x2 (x45 x52 x84)) (x72 (x45 x47 x52)) (x148 (x45 x47 x47)) (x117 (x45 x67 x52)) (x63 (x45 x47 x101)) (x119 (x45 x101 x84)) (x59 (x45 x47 x84)) (x149 (x45 x84 x84)) (x60 (x45 x47 x67))) (and (and (and (and (not (= x59 x148)) (and (not (= x72 x59)) (and (and (and (and (not (= x72 x60)) (and (not (= x59 x63)) (and (and (not (= x63 x60)) (not (= x72 x63))) (not (= x148 x63))))) (not (= x60 x148))) (not (= x59 x60))) (not (= x148 x72))))) (and (and (and (not (= x119 x130)) (and (and (not (= x74 x130)) (and (not (= x119 x11)) (and (not (= x130 x11)) (and (and (and (and (not (= x98 x11)) (not (= x98 x74))) (not (= x98 x130))) (not (= x119 x98))) (not (= x11 x74)))))) (not (= x74 x119)))) (and (not (= x122 x123)) (and (not (= x117 x122)) (and (and (and (and (not (= x117 x17)) (and (and (not (= x4 x123)) (and (not (= x17 x4)) (not (= x4 x117)))) (not (= x122 x4)))) (not (= x17 x123))) (not (= x122 x17))) (not (= x123 x117)))))) (and (not (= x108 x2)) (and (not (= x1 x2)) (and (and (and (and (and (and (not (= x108 x61)) (and (not (= x61 x1)) (not (= x40 x61)))) (not (= x2 x61))) (not (= x40 x1))) (not (= x40 x108))) (not (= x40 x2))) (not (= x1 x108))))))) (and (not (= x69 x149)) (and (and (not (= x69 x81)) (and (and (and (not (= x82 x81)) (and (not (= x149 x71)) (and (and (not (= x71 x81)) (not (= x71 x82))) (not (= x71 x69))))) (not (= x69 x82))) (not (= x82 x149)))) (not (= x149 x81))))) (and (and (and (not (= x2 x149)) (and (and (not (= x122 x149)) (and (not (= x122 x59)) (and (and (not (= x149 x119)) (and (not (= x119 x59)) (and (not (= x122 x119)) (not (= x119 x2))))) (not (= x2 x122))))) (not (= x2 x59)))) (not (= x149 x59))) (and (and (and (not (= x72 x81)) (and (and (and (not (= x117 x81)) (and (not (= x117 x72)) (and (not (= x117 x1)) (and (and (not (= x74 x72)) (and (not (= x117 x74)) (not (= x1 x74)))) (not (= x74 x81)))))) (not (= x72 x1))) (not (= x81 x1)))) (and (and (and (not (= x71 x61)) (and (not (= x61 x63)) (and (not (= x4 x71)) (and (and (not (= x61 x4)) (and (not (= x98 x71)) (and (not (= x98 x63)) (and (not (= x61 x98)) (not (= x4 x98)))))) (not (= x4 x63)))))) (not (= x71 x63))) (and (and (not (= x40 x82)) (and (and (not (= x82 x17)) (and (and (not (= x17 x40)) (and (not (= x11 x82)) (and (and (not (= x17 x11)) (not (= x40 x11))) (not (= x60 x11))))) (not (= x60 x17)))) (not (= x60 x40)))) (not (= x82 x60))))) (and (not (= x148 x69)) (and (not (= x69 x108)) (and (not (= x108 x148)) (and (and (not (= x123 x148)) (and (and (not (= x69 x130)) (and (not (= x130 x148)) (and (not (= x130 x108)) (not (= x130 x123))))) (not (= x108 x123)))) (not (= x123 x69)))))))))))
(assert (let ((x35 (x45 x67 x67)) (x8 (x45 x47 x67)) (x104 (x45 x47 x52)) (x13 (x45 x101 x67)) (x36 (x45 x101 x101)) (x153 (x45 x84 x47)) (x5 (x45 x52 x101)) (x22 (x45 x67 x47)) (x109 (x45 x52 x47)) (x7 (x45 x84 x101)) (x92 (x45 x52 x84)) (x100 (x45 x67 x84)) (x127 (x45 x84 x52)) (x151 (x45 x52 x52)) (x30 (x45 x84 x84)) (x113 (x45 x47 x84)) (x43 (x45 x101 x52)) (x42 (x45 x67 x52)) (x56 (x45 x47 x47)) (x16 (x45 x52 x67)) (x146 (x45 x101 x47)) (x75 (x45 x67 x101)) (x102 (x45 x84 x67)) (x142 (x45 x101 x84)) (x31 (x45 x47 x101))) (let ((x71 (not (= x101 x5))) (x1 (not (= x101 x22))) (x6 (not (= x7 x84))) (x132 (not (= x67 x42))) (x129 (not (= x75 x67))) (x49 (not (= x52 x127))) (x4 (not (= x75 x101))) (x2 (not (= x101 x153))) (x72 (not (= x104 x101))) (x86 (not (= x146 x47))) (x65 (not (= x35 x67))) (x10 (not (= x52 x30))) (x12 (not (= x127 x47))) (x96 (not (= x67 x142))) (x119 (not (= x127 x101))) (x21 (not (= x109 x67))) (x28 (not (= x67 x31))) (x122 (not (= x92 x101))) (x128 (not (= x42 x52))) (x157 (not (= x67 x36))) (x111 (not (= x52 x142))) (x118 (not (= x52 x104))) (x120 (not (= x43 x47))) (x38 (not (= x35 x47))) (x150 (not (= x153 x84))) (x117 (not (= x8 x101))) (x24 (not (= x67 x56))) (x115 (not (= x5 x52))) (x48 (not (= x151 x52))) (x19 (not (= x104 x47))) (x62 (not (= x36 x84))) (x40 (not (= x42 x101))) (x98 (not (= x36 x101))) (x123 (not (= x101 x7))) (x58 (not (= x8 x52))) (x89 (not (= x52 x100))) (x88 (not (= x52 x92))) (x152 (not (= x67 x104))) (x90 (not (= x36 x52))) (x93 (not (= x35 x84))) (x155 (not (= x75 x52))) (x73 (not (= x36 x47))) (x74 (not (= x101 x146))) (x95 (not (= x146 x52))) (x80 (not (= x47 x102))) (x138 (not (= x31 x84))) (x60 (not (= x151 x101))) (x94 (not (= x47 x100))) (x126 (not (= x102 x67))) (x124 (not (= x30 x67))) (x136 (not (= x52 x13))) (x85 (not (= x113 x47))) (x112 (not (= x142 x84))) (x125 (not (= x42 x47))) (x149 (not (= x101 x30))) (x20 (not (= x113 x52))) (x54 (not (= x43 x84))) (x83 (not (= x52 x56))) (x33 (not (= x8 x67))) (x107 (not (= x52 x16))) (x145 (not (= x67 x7))) (x91 (not (= x67 x22))) (x37 (not (= x47 x16))) (x116 (not (= x84 x75))) (x23 (not (= x52 x7))) (x44 (not (= x16 x67))) (x148 (not (= x101 x102))) (x57 (not (= x146 x84))) (x130 (not (= x101 x56))) (x26 (not (= x52 x35))) (x110 (not (= x84 x100))) (x159 (not (= x47 x151))) (x41 (not (= x84 x42))) (x64 (not (= x16 x84))) (x139 (not (= x8 x84))) (x141 (not (= x84 x30))) (x131 (not (= x84 x13))) (x76 (not (= x47 x30))) (x11 (not (= x43 x101))) (x68 (not (= x47 x153))) (x55 (not (= x31 x47))) (x39 (not (= x47 x109))) (x29 (not (= x102 x84))) (x3 (not (= x153 x52))) (x79 (not (= x84 x5))) (x147 (not (= x7 x47))) (x50 (not (= x67 x92))) (x105 (not (= x22 x47))) (x135 (not (= x92 x84))) (x14 (not (= x67 x151))) (x133 (not (= x47 x13))) (x99 (not (= x67 x100))) (x108 (not (= x101 x142))) (x15 (not (= x43 x52))) (x27 (not (= x52 x102))) (x121 (not (= x43 x67))) (x154 (not (= x146 x67))) (x114 (not (= x56 x47))) (x158 (not (= x84 x127))) (x81 (not (= x109 x101))) (x103 (not (= x153 x67))) (x143 (not (= x52 x109))) (x134 (not (= x5 x67))) (x97 (not (= x52 x31))) (x66 (not (= x104 x84))) (x77 (not (= x142 x47))) (x82 (not (= x101 x31))) (x59 (not (= x101 x113))) (x137 (not (= x47 x8))) (x51 (not (= x84 x151))) (x87 (not (= x67 x127))) (x156 (not (= x22 x84))) (x69 (not (= x101 x100))) (x32 (not (= x67 x13))) (x144 (not (= x22 x52))) (x61 (not (= x101 x13))) (x34 (not (= x92 x47))) (x70 (not (= x67 x113))) (x17 (not (= x101 x16))) (x63 (not (= x101 x35))) (x140 (not (= x84 x56))) (x9 (not (= x113 x84))) (x78 (not (= x47 x5))) (x18 (not (= x109 x84))) (x106 (not (= x47 x75)))) (or (and (and (and (or x150 x9) (and (or x158 x135) (and (or x6 x112) (or x110 x29)))) (or x141 x141)) (and (and (and (and (or x18 x66) (and (and (or x79 x54) (or x64 x41)) (or x51 x51))) (or x158 x135)) (and (and (or x6 x112) (and (and (and (or x62 x62) (or x131 x116)) (or x79 x54)) (or x138 x57))) (and (or x110 x29) (and (or x156 x139) (and (and (or x116 x131) (or x93 x93)) (or x41 x64)))))) (and (or x150 x9) (and (or x140 x140) (and (and (or x156 x139) (or x57 x138)) (or x66 x18)))))) (or (or (or (and (and (and (or x59 x2) (and (and (or x72 x81) (and (or x117 x1) (or x74 x82))) (or x130 x130))) (and (and (and (or x108 x123) (and (and (and (or x98 x98) (or x4 x61)) (or x71 x11)) (or x82 x74))) (and (and (and (or x17 x40) (and (or x63 x63) (or x61 x4))) (or x1 x117)) (or x148 x69))) (and (and (or x72 x81) (and (and (or x17 x40) (or x71 x11)) (or x60 x60))) (or x122 x119)))) (and (or x149 x149) (and (and (or x122 x119) (and (or x123 x108) (or x148 x69))) (or x59 x2)))) (and (and (and (and (and (and (or x28 x154) (and (and (or x157 x157) (or x129 x32)) (or x121 x134))) (or x96 x145)) (and (and (and (and (or x65 x65) (or x32 x129)) (or x44 x132)) (or x91 x33)) (or x126 x99))) (and (or x87 x50) (and (and (or x14 x14) (and (or x134 x121) (or x44 x132))) (or x152 x21)))) (and (or x70 x103) (and (and (or x152 x21) (and (or x91 x33) (or x28 x154))) (or x24 x24)))) (and (or x124 x124) (and (and (or x87 x50) (and (or x126 x99) (or x145 x96))) (or x70 x103))))) (and (and (and (or x3 x20) (and (or x88 x49) (and (or x111 x23) (or x27 x89)))) (or x10 x10)) (and (and (and (or x88 x49) (and (and (and (or x128 x107) (or x115 x15)) (or x48 x48)) (or x143 x118))) (and (and (or x23 x111) (and (and (or x15 x115) (and (or x155 x136) (or x90 x90))) (or x95 x97))) (and (or x89 x27) (and (or x144 x58) (and (and (or x26 x26) (or x155 x136)) (or x128 x107)))))) (and (or x3 x20) (and (and (and (or x95 x97) (or x144 x58)) (or x118 x143)) (or x83 x83)))))) (and (and (and (or x68 x85) (and (or x114 x114) (and (or x39 x19) (and (or x105 x137) (or x86 x55))))) (and (and (and (and (or x137 x105) (and (and (or x106 x133) (or x38 x38)) (or x125 x37))) (or x94 x80)) (and (and (or x55 x86) (and (and (or x133 x106) (or x73 x73)) (or x78 x120))) (or x147 x77))) (and (or x12 x34) (and (or x19 x39) (and (or x159 x159) (and (or x120 x78) (or x37 x125))))))) (and (and (and (or x34 x12) (and (or x94 x80) (or x77 x147))) (or x85 x68)) (or x76 x76))))))))
(assert (not (and (= x101 (x45 x84 x84)) (and (= (x45 x84 x47) x67) (and (= x52 (x45 x84 x52)) (and (= (x45 x84 x67) x84) (and (and (and (and (= (x45 x47 x52) x84) (and (= x67 (x45 x47 x67)) (and (= x52 (x45 x47 x101)) (and (and (and (= (x45 x52 x52) x47) (and (and (= x84 (x45 x52 x101)) (and (and (and (= x67 (x45 x67 x52)) (and (= x47 (x45 x67 x67)) (and (and (= x84 (x45 x101 x84)) (and (and (= x101 (x45 x101 x52)) (and (= x52 (x45 x101 x67)) (= x67 (x45 x101 x101)))) (= x47 (x45 x101 x47)))) (= x101 (x45 x67 x101))))) (= (x45 x67 x47) x84)) (= (x45 x67 x84) x52))) (= x101 (x45 x52 x67)))) (= (x45 x52 x47) x52)) (= (x45 x52 x84) x67))))) (= x101 (x45 x47 x47))) (= (x45 x47 x84) x47)) (= x47 (x45 x84 x101)))))))))
(assert (and (or (= x84 (x45 x84 (x45 x84 x84))) (or (or (= (x45 x84 (x45 x84 x52)) x52) (or (= x67 (x45 x84 (x45 x84 x67))) (= x101 (x45 x84 (x45 x84 x101))))) (= (x45 x84 (x45 x84 x47)) x47))) (and (and (or (= x84 (x45 x52 (x45 x52 x84))) (or (or (= x52 (x45 x52 (x45 x52 x52))) (or (= x101 (x45 x52 (x45 x52 x101))) (= x67 (x45 x52 (x45 x52 x67))))) (= (x45 x52 (x45 x52 x47)) x47))) (and (or (= x84 (x45 x67 (x45 x67 x84))) (or (or (= (x45 x67 (x45 x67 x52)) x52) (or (= x67 (x45 x67 (x45 x67 x67))) (= (x45 x67 (x45 x67 x101)) x101))) (= (x45 x67 (x45 x67 x47)) x47))) (or (= (x45 x101 (x45 x101 x84)) x84) (or (or (or (= x101 (x45 x101 (x45 x101 x101))) (= x67 (x45 x101 (x45 x101 x67)))) (= x52 (x45 x101 (x45 x101 x52)))) (= (x45 x101 (x45 x101 x47)) x47))))) (or (= x84 (x45 x47 (x45 x47 x84))) (or (or (= (x45 x47 (x45 x47 x52)) x52) (or (= x101 (x45 x47 (x45 x47 x101))) (= x67 (x45 x47 (x45 x47 x67))))) (= x47 (x45 x47 (x45 x47 x47))))))))
(assert (and (and (and (= x67 (x45 x101 x101)) (= x52 (x45 x101 x67))) (= x47 (x45 x84 x101))) (= x84 (x45 x52 x101))))
(assert (let ((x130 (x45 x101 x47)) (x4 (x45 x101 x101)) (x69 (x45 x67 x67)) (x100 (x45 x84 x47)) (x142 (x45 x47 x67)) (x1 (x45 x101 x67)) (x75 (x45 x52 x52)) (x11 (x45 x52 x101)) (x32 (x45 x47 x47)) (x81 (x45 x101 x52)) (x43 (x45 x52 x47)) (x2 (x45 x67 x47)) (x82 (x45 x84 x101)) (x123 (x45 x101 x84)) (x5 (x45 x52 x84)) (x157 (x45 x52 x67)) (x40 (x45 x47 x101)) (x122 (x45 x67 x52)) (x8 (x45 x84 x52)) (x63 (x45 x67 x101)) (x102 (x45 x84 x84)) (x129 (x45 x47 x52)) (x35 (x45 x47 x84)) (x59 (x45 x67 x84)) (x16 (x45 x84 x67))) (let ((x127 (= x122 x52)) (x39 (= x84 x63)) (x152 (= x75 x52)) (x133 (= x8 x47)) (x62 (= x157 x84)) (x125 (= x1 x84)) (x66 (= x84 x32)) (x97 (= x47 x11)) (x88 (= x32 x52)) (x51 (= x101 x35)) (x14 (= x52 x63)) (x77 (= x59 x67)) (x10 (= x101 x100)) (x104 (= x69 x52)) (x60 (= x101 x82)) (x48 (= x2 x47)) (x96 (= x101 x8)) (x116 (= x67 x5)) (x136 (= x63 x47)) (x121 (= x101 x81)) (x95 (= x101 x43)) (x138 (= x142 x84)) (x94 (= x59 x52)) (x72 (= x1 x67)) (x68 (= x84 x59)) (x105 (= x47 x123)) (x119 (= x69 x67)) (x156 (= x52 x35)) (x141 (= x84 x102)) (x55 (= x84 x81)) (x42 (= x16 x101)) (x149 (= x11 x67)) (x109 (= x122 x101)) (x92 (= x122 x67)) (x80 (= x122 x84)) (x145 (= x52 x82)) (x29 (= x16 x84)) (x37 (= x101 x123)) (x144 (= x43 x67)) (x31 (= x101 x142)) (x137 (= x84 x130)) (x90 (= x52 x130)) (x112 (= x102 x101)) (x86 (= x123 x52)) (x140 (= x35 x84)) (x103 (= x130 x101)) (x111 (= x101 x32)) (x132 (= x67 x81)) (x20 (= x47 x82)) (x143 (= x43 x52)) (x12 (= x84 x2)) (x124 (= x81 x47)) (x139 (= x84 x129)) (x44 (= x1 x52)) (x154 (= x75 x101)) (x26 (= x2 x101)) (x120 (= x4 x84)) (x128 (= x2 x52)) (x151 (= x52 x81)) (x83 (= x47 x43)) (x61 (= x63 x101)) (x57 (= x35 x67)) (x9 (= x102 x47)) (x30 (= x67 x130)) (x113 (= x67 x129)) (x118 (= x75 x47)) (x49 (= x129 x47)) (x99 (= x67 x8)) (x115 (= x47 x69)) (x87 (= x52 x8)) (x41 (= x40 x84)) (x126 (= x16 x52)) (x150 (= x100 x84)) (x71 (= x101 x11)) (x73 (= x47 x16)) (x22 (= x67 x16)) (x17 (= x101 x40)) (x33 (= x157 x52)) (x146 (= x40 x67)) (x159 (= x67 x123)) (x93 (= x52 x5)) (x78 (= x47 x100)) (x36 (= x157 x101)) (x79 (= x43 x84)) (x13 (= x157 x67)) (x158 (= x8 x84)) (x15 (= x67 x2)) (x27 (= x47 x142)) (x6 (= x84 x82)) (x76 (= x5 x101)) (x3 (= x47 x32)) (x148 (= x69 x101)) (x135 (= x102 x52)) (x28 (= x52 x11)) (x58 (= x47 x157)) (x19 (= x84 x123)) (x98 (= x101 x4)) (x18 (= x35 x47)) (x106 (= x100 x67)) (x110 (= x102 x67)) (x64 (= x84 x5)) (x131 (= x84 x75)) (x70 (= x1 x47)) (x107 (= x122 x47)) (x155 (= x130 x47)) (x91 (= x67 x75)) (x85 (= x84 x11)) (x54 (= x47 x5)) (x50 (= x47 x4)) (x74 (= x67 x4)) (x65 (= x67 x82)) (x7 (= x67 x142)) (x34 (= x59 x47)) (x134 (= x4 x52)) (x24 (= x52 x142)) (x21 (= x40 x52)) (x38 (= x52 x100)) (x89 (= x67 x32)) (x108 (= x67 x63)) (x56 (= x129 x101)) (x153 (= x129 x52)) (x114 (= x101 x59)) (x147 (= x84 x69)) (x117 (= x1 x101)) (x23 (= x47 x40))) (and (or (or (or (or (and x64 (not x64)) (or (and x79 (not x54)) (or (or (and (not x116) x62) (and x85 (not x76))) (and x131 (not x93))))) (or (or (and x19 (not x19)) (or (or (or (and x120 (not x37)) (and (not x159) x125)) (and (not x86) x55)) (and x137 (not x105)))) (or (or (or (or (and x39 (not x114)) (and x147 (not x77))) (and x80 (not x94))) (and (not x34) x12)) (and (not x68) x68)))) (or (or (and (not x18) x66) (or (and x139 (not x156)) (or (and (not x51) x41) (and x138 (not x57))))) (and x140 (not x140)))) (or (and (not x141) x141) (or (and x150 (not x9)) (or (and x158 (not x135)) (or (and x6 (not x112)) (and x29 (not x110))))))) (and (and (or (or (or (or (or (or (and (not x56) x21) (and x24 (not x113))) (and (not x153) x153)) (and x88 (not x49))) (and x156 (not x139))) (or (or (or (or (or (and (not x127) x127) (or (and x104 (not x92)) (and (not x109) x14))) (and x128 (not x107))) (and x94 (not x80))) (or (or (or (and x151 (not x151)) (or (and (not x121) x134) (and (not x132) x44))) (and (not x124) x90)) (and (not x55) x86))) (or (or (and (not x118) x143) (or (and x152 (not x152)) (or (and x28 (not x154)) (and x33 (not x91))))) (and x93 (not x131))))) (or (and (not x158) x135) (or (and (not x133) x38) (or (or (and x126 (not x99)) (and x145 (not x96))) (and (not x87) x87))))) (and (or (or (and x112 (not x6)) (or (and (not x20) x10) (or (or (and (not x65) x42) (and (not x60) x60)) (and (not x145) x96)))) (or (or (or (or (or (and x154 (not x28)) (or (and x36 (not x149)) (and (not x71) x71))) (and x95 (not x97))) (and x76 (not x85))) (or (or (or (and (not x136) x26) (or (and (not x14) x109) (or (and x61 (not x61)) (and x148 (not x108))))) (and x114 (not x39))) (or (and (not x120) x37) (or (or (and x121 (not x134)) (or (and x98 (not x98)) (and x117 (not x74)))) (and (not x50) x103))))) (or (or (and (not x23) x111) (or (or (and (not x146) x31) (and (not x17) x17)) (and (not x21) x56))) (and (not x41) x51)))) (or (or (or (and (not x73) x106) (or (or (and x65 (not x42)) (and (not x22) x22)) (and x99 (not x126)))) (and x110 (not x29))) (or (or (or (and (not x62) x116) (or (and x144 (not x58)) (or (and x91 (not x33)) (or (and x149 (not x36)) (and (not x13) x13))))) (or (or (and x159 (not x125)) (or (or (or (and (not x117) x74) (and (not x72) x72)) (and x132 (not x44))) (and x30 (not x70)))) (or (and (not x147) x77) (or (and (not x115) x15) (or (and x92 (not x104)) (or (and x119 (not x119)) (and (not x148) x108))))))) (or (or (or (or (and (not x31) x146) (and x7 (not x7))) (and x113 (not x24))) (and (not x27) x89)) (and (not x138) x57)))))) (or (or (or (or (or (and (not x10) x20) (and (not x106) x73)) (and (not x38) x133)) (and (not x78) x78)) (and x9 (not x150))) (or (or (or (or (or (or (and (not x90) x124) (or (and (not x103) x50) (and x70 (not x30)))) (and x155 (not x155))) (and x105 (not x137))) (or (and (not x12) x34) (or (or (or (and (not x15) x115) (and (not x26) x136)) (and (not x128) x107)) (and x48 (not x48))))) (or (or (or (and (not x143) x118) (or (and (not x144) x58) (and (not x95) x97))) (and (not x83) x83)) (and (not x79) x54))) (or (and (not x66) x18) (or (or (and x49 (not x88)) (or (and x27 (not x89)) (and x23 (not x111)))) (and (not x3) x3))))))))))
(assert (let ((x71 (= x84 (x45 (x45 x84 x84) x84))) (x98 (= (x45 (x45 x101 x101) x101) x101)) (x63 (= x47 (x45 (x45 x47 x47) x47))) (x61 (= x52 (x45 (x45 x52 x52) x52))) (x4 (= (x45 (x45 x67 x67) x67) x67))) (and (and (and (or (= x84 (x45 (x45 x47 x84) x47)) (or (or (or (= (x45 (x45 x47 x101) x47) x101) (= (x45 (x45 x47 x67) x47) x67)) (= (x45 (x45 x47 x52) x47) x52)) x63)) (and (or (= x84 (x45 (x45 x52 x84) x52)) (or (= x47 (x45 (x45 x52 x47) x52)) (or (or (= (x45 (x45 x52 x67) x52) x67) (= x101 (x45 (x45 x52 x101) x52))) x61))) (and (or (or (or (or x4 (= x101 (x45 (x45 x67 x101) x67))) (= x52 (x45 (x45 x67 x52) x67))) (= (x45 (x45 x67 x47) x67) x47)) (= (x45 (x45 x67 x84) x67) x84)) (or (= x84 (x45 (x45 x101 x84) x101)) (or (or (= x52 (x45 (x45 x101 x52) x101)) (or (= (x45 (x45 x101 x67) x101) x67) x98)) (= x47 (x45 (x45 x101 x47) x101))))))) (or (or (or (= (x45 (x45 x84 x52) x84) x52) (or (= x67 (x45 (x45 x84 x67) x84)) (= (x45 (x45 x84 x101) x84) x101))) (= (x45 (x45 x84 x47) x84) x47)) x71)) (or (or x63 (or (or x4 x98) x61)) x71))))
(check-sat)
(exit)
